21° run output:
{
    "Function": "kroA1000.tsp",
    "Problem dimension": [
        179,
        82,
        269,
        247,
        793,
        328,
        333,
        711,
        561,
        564,
        352,
        538,
        558,
        362,
        941,
        806,
        885,
        212,
        498,
        883,
        689,
        586,
        377,
        767,
        868,
        386,
        216,
        545,
        425,
        148,
        942,
        890,
        303,
        329,
        123,
        584,
        928,
        447,
        743,
        726,
        903,
        663,
        836,
        63,
        795,
        367,
        783,
        125,
        325,
        421,
        679,
        511,
        50,
        16,
        26,
        960,
        396,
        490,
        659,
        744,
        417,
        308,
        11,
        391,
        740,
        4,
        87,
        579,
        261,
        86,
        991,
        98,
        599,
        778,
        894,
        241,
        624,
        318,
        789,
        750,
        374,
        427,
        641,
        708,
        771,
        410,
        875,
        524,
        449,
        531,
        120,
        980,
        953,
        601,
        900,
        982,
        947,
        507,
        66,
        526,
        309,
        306,
        881,
        554,
        513,
        999,
        438,
        753,
        388,
        966,
        597,
        296,
        152,
        635,
        353,
        801,
        629,
        183,
        876,
        225,
        193,
        792,
        162,
        977,
        668,
        252,
        144,
        572,
        430,
        822,
        15,
        748,
        139,
        1,
        777,
        119,
        919,
        40,
        637,
        452,
        619,
        829,
        686,
        858,
        698,
        323,
        285,
        625,
        535,
        514,
        807,
        264,
        573,
        76,
        827,
        17,
        397,
        899,
        474,
        636,
        884,
        963,
        133,
        594,
        135,
        68,
        571,
        350,
        394,
        975,
        787,
        863,
        912,
        735,
        439,
        43,
        770,
        230,
        39,
        178,
        440,
        58,
        701,
        585,
        409,
        322,
        384,
        644,
        75,
        918,
        369,
        223,
        609,
        95,
        657,
        170,
        36,
        851,
        683,
        146,
        694,
        300,
        616,
        810,
        33,
        142,
        517,
        19,
        784,
        755,
        704,
        272,
        203,
        231,
        271,
        253,
        228,
        895,
        263,
        78,
        88,
        195,
        816,
        892,
        60,
        546,
        376,
        606,
        934,
        211,
        0,
        315,
        81,
        926,
        737,
        867,
        671,
        324,
        566,
        732,
        354,
        567,
        143,
        457,
        173,
        244,
        785,
        854,
        419,
        721,
        213,
        889,
        301,
        159,
        188,
        812,
        227,
        395,
        365,
        243,
        290,
        304,
        646,
        277,
        541,
        742,
        761,
        672,
        197,
        413,
        140,
        773,
        877,
        527,
        591,
        627,
        655,
        59,
        64,
        460,
        512,
        138,
        661,
        588,
        161,
        972,
        273,
        44,
        713,
        441,
        8,
        634,
        533,
        780,
        983,
        345,
        790,
        481,
        305,
        339,
        456,
        916,
        532,
        462,
        831,
        184,
        401,
        710,
        84,
        969,
        523,
        872,
        13,
        80,
        809,
        74,
        620,
        502,
        7,
        681,
        958,
        127,
        130,
        922,
        696,
        556,
        314,
        468,
        493,
        176,
        403,
        27,
        113,
        371,
        164,
        764,
        434,
        993,
        823,
        905,
        587,
        317,
        248,
        563,
        238,
        204,
        828,
        236,
        399,
        503,
        437,
        200,
        6,
        998,
        717,
        745,
        653,
        334,
        715,
        349,
        862,
        800,
        688,
        42,
        756,
        282,
        426,
        548,
        102,
        873,
        499,
        30,
        765,
        487,
        370,
        976,
        122,
        775,
        673,
        380,
        467,
        660,
        751,
        10,
        516,
        832,
        752,
        543,
        550,
        843,
        590,
        613,
        690,
        865,
        206,
        656,
        465,
        955,
        939,
        943,
        893,
        908,
        373,
        723,
        949,
        995,
        214,
        463,
        136,
        408,
        697,
        974,
        398,
        515,
        326,
        621,
        359,
        887,
        897,
        208,
        759,
        358,
        51,
        730,
        451,
        600,
        997,
        171,
        199,
        808,
        443,
        648,
        707,
        913,
        754,
        406,
        20,
        593,
        615,
        18,
        70,
        32,
        820,
        157,
        741,
        589,
        319,
        21,
        840,
        500,
        676,
        985,
        156,
        205,
        680,
        257,
        937,
        712,
        574,
        472,
        379,
        645,
        422,
        835,
        855,
        128,
        492,
        856,
        416,
        275,
        978,
        617,
        94,
        294,
        733,
        923,
        677,
        312,
        165,
        411,
        429,
        62,
        31,
        262,
        878,
        495,
        569,
        103,
        117,
        259,
        453,
        224,
        292,
        284,
        529,
        5,
        57,
        575,
        461,
        611,
        402,
        562,
        72,
        293,
        518,
        483,
        786,
        473,
        341,
        882,
        361,
        307,
        768,
        984,
        299,
        757,
        486,
        519,
        154,
        774,
        432,
        910,
        639,
        278,
        846,
        950,
        160,
        724,
        186,
        381,
        480,
        525,
        830,
        89,
        811,
        779,
        126,
        479,
        187,
        650,
        649,
        372,
        544,
        687,
        576,
        746,
        501,
        450,
        375,
        245,
        603,
        988,
        824,
        288,
        797,
        149,
        310,
        553,
        79,
        412,
        276,
        3,
        67,
        14,
        131,
        48,
        330,
        233,
        182,
        537,
        944,
        927,
        725,
        510,
        608,
        258,
        678,
        879,
        145,
        25,
        989,
        260,
        734,
        849,
        788,
        658,
        614,
        96,
        505,
        444,
        559,
        921,
        134,
        185,
        604,
        954,
        971,
        642,
        595,
        320,
        256,
        476,
        190,
        630,
        870,
        217,
        37,
        85,
        839,
        967,
        834,
        357,
        952,
        279,
        914,
        844,
        951,
        992,
        845,
        596,
        469,
        232,
        607,
        24,
        693,
        191,
        731,
        577,
        194,
        632,
        643,
        861,
        814,
        246,
        482,
        837,
        321,
        901,
        423,
        973,
        491,
        857,
        454,
        418,
        347,
        633,
        762,
        92,
        578,
        488,
        424,
        965,
        249,
        270,
        622,
        536,
        239,
        880,
        338,
        107,
        9,
        906,
        935,
        431,
        933,
        267,
        581,
        464,
        818,
        702,
        738,
        355,
        137,
        896,
        945,
        311,
        400,
        105,
        478,
        219,
        769,
        626,
        841,
        628,
        251,
        34,
        392,
        346,
        56,
        202,
        994,
        448,
        871,
        446,
        298,
        207,
        407,
        198,
        280,
        53,
        118,
        667,
        497,
        555,
        618,
        911,
        796,
        55,
        46,
        192,
        964,
        101,
        344,
        522,
        174,
        799,
        847,
        210,
        215,
        265,
        675,
        382,
        874,
        327,
        805,
        494,
        605,
        729,
        691,
        592,
        12,
        552,
        549,
        833,
        791,
        41,
        387,
        669,
        93,
        962,
        363,
        124,
        528,
        920,
        222,
        112,
        640,
        803,
        540,
        560,
        763,
        459,
        180,
        948,
        286,
        772,
        342,
        97,
        104,
        798,
        108,
        218,
        150,
        28,
        888,
        360,
        534,
        331,
        886,
        530,
        302,
        343,
        736,
        925,
        100,
        49,
        475,
        652,
        466,
        378,
        852,
        52,
        420,
        700,
        295,
        749,
        859,
        266,
        539,
        45,
        970,
        802,
        654,
        821,
        281,
        22,
        172,
        366,
        484,
        727,
        166,
        582,
        782,
        996,
        825,
        917,
        794,
        168,
        209,
        674,
        956,
        766,
        38,
        664,
        990,
        415,
        506,
        229,
        167,
        612,
        477,
        151,
        815,
        390,
        274,
        739,
        542,
        817,
        90,
        23,
        114,
        568,
        623,
        551,
        685,
        557,
        141,
        842,
        220,
        869,
        485,
        189,
        520,
        850,
        147,
        106,
        368,
        181,
        781,
        69,
        255,
        666,
        121,
        442,
        638,
        65,
        860,
        915,
        435,
        393,
        957,
        853,
        570,
        234,
        77,
        631,
        728,
        313,
        404,
        758,
        647,
        706,
        385,
        864,
        813,
        364,
        110,
        61,
        968,
        703,
        580,
        335,
        433,
        931,
        436,
        684,
        547,
        35,
        979,
        99,
        196,
        695,
        470,
        158,
        981,
        898,
        336,
        565,
        940,
        651,
        583,
        115,
        297,
        291,
        348,
        455,
        337,
        332,
        959,
        356,
        720,
        670,
        692,
        235,
        54,
        938,
        471,
        930,
        169,
        838,
        907,
        848,
        29,
        902,
        458,
        509,
        237,
        804,
        175,
        414,
        111,
        496,
        709,
        283,
        776,
        909,
        83,
        986,
        389,
        240,
        705,
        987,
        226,
        428,
        201,
        662,
        340,
        929,
        71,
        699,
        602,
        91,
        866,
        508,
        73,
        932,
        521,
        383,
        760,
        287,
        819,
        665,
        289,
        405,
        242,
        116,
        445,
        351,
        132,
        936,
        163,
        904,
        722,
        221,
        2,
        598,
        155,
        747,
        719,
        716,
        254,
        153,
        924,
        946,
        714,
        682,
        129,
        718,
        316,
        891,
        504,
        109,
        826,
        489,
        610,
        268,
        177,
        47,
        961,
        250
    ],
    "Global Optimum": 0,
    "Algorithm": "Genetic algorithm",
    "Parameters": {
        "population": 30,
        "offspring": 30,
        "mutation probability": 0.001,
        "crossover probability": 0.9
    },
    "Fitness": 1374252,
    "Solution": [
        179,
        82,
        269,
        247,
        793,
        328,
        333,
        711,
        561,
        564,
        352,
        538,
        558,
        362,
        941,
        806,
        885,
        212,
        498,
        883,
        689,
        586,
        377,
        767,
        868,
        386,
        216,
        545,
        425,
        148,
        942,
        890,
        303,
        329,
        123,
        584,
        928,
        447,
        743,
        726,
        903,
        663,
        836,
        63,
        795,
        367,
        783,
        125,
        325,
        421,
        679,
        511,
        50,
        16,
        26,
        960,
        396,
        490,
        659,
        744,
        417,
        308,
        11,
        391,
        740,
        4,
        87,
        579,
        261,
        86,
        991,
        98,
        599,
        778,
        894,
        241,
        624,
        318,
        789,
        750,
        374,
        427,
        641,
        708,
        771,
        410,
        875,
        524,
        449,
        531,
        120,
        980,
        953,
        601,
        900,
        982,
        947,
        507,
        66,
        526,
        309,
        306,
        881,
        554,
        513,
        999,
        438,
        753,
        388,
        966,
        597,
        296,
        152,
        635,
        353,
        801,
        629,
        183,
        876,
        225,
        193,
        792,
        162,
        977,
        668,
        252,
        144,
        572,
        430,
        822,
        15,
        748,
        139,
        1,
        777,
        119,
        919,
        40,
        637,
        452,
        619,
        829,
        686,
        858,
        698,
        323,
        285,
        625,
        535,
        514,
        807,
        264,
        573,
        76,
        827,
        17,
        397,
        899,
        474,
        636,
        884,
        963,
        133,
        594,
        135,
        68,
        571,
        350,
        394,
        975,
        787,
        863,
        912,
        735,
        439,
        43,
        770,
        230,
        39,
        178,
        440,
        58,
        701,
        585,
        409,
        322,
        384,
        644,
        75,
        918,
        369,
        223,
        609,
        95,
        657,
        170,
        36,
        851,
        683,
        146,
        694,
        300,
        616,
        810,
        33,
        142,
        517,
        19,
        784,
        755,
        704,
        272,
        203,
        231,
        271,
        253,
        228,
        895,
        263,
        78,
        88,
        195,
        816,
        892,
        60,
        546,
        376,
        606,
        934,
        211,
        0,
        315,
        81,
        926,
        737,
        867,
        671,
        324,
        566,
        732,
        354,
        567,
        143,
        457,
        173,
        244,
        785,
        854,
        419,
        721,
        213,
        889,
        301,
        159,
        188,
        812,
        227,
        395,
        365,
        243,
        290,
        304,
        646,
        277,
        541,
        742,
        761,
        672,
        197,
        413,
        140,
        773,
        877,
        527,
        591,
        627,
        655,
        59,
        64,
        460,
        512,
        138,
        661,
        588,
        161,
        972,
        273,
        44,
        713,
        441,
        8,
        634,
        533,
        780,
        983,
        345,
        790,
        481,
        305,
        339,
        456,
        916,
        532,
        462,
        831,
        184,
        401,
        710,
        84,
        969,
        523,
        872,
        13,
        80,
        809,
        74,
        620,
        502,
        7,
        681,
        958,
        127,
        130,
        922,
        696,
        556,
        314,
        468,
        493,
        176,
        403,
        27,
        113,
        371,
        164,
        764,
        434,
        993,
        823,
        905,
        587,
        317,
        248,
        563,
        238,
        204,
        828,
        236,
        399,
        503,
        437,
        200,
        6,
        998,
        717,
        745,
        653,
        334,
        715,
        349,
        862,
        800,
        688,
        42,
        756,
        282,
        426,
        548,
        102,
        873,
        499,
        30,
        765,
        487,
        370,
        976,
        122,
        775,
        673,
        380,
        467,
        660,
        751,
        10,
        516,
        832,
        752,
        543,
        550,
        843,
        590,
        613,
        690,
        865,
        206,
        656,
        465,
        955,
        939,
        943,
        893,
        908,
        373,
        723,
        949,
        995,
        214,
        463,
        136,
        408,
        697,
        974,
        398,
        515,
        326,
        621,
        359,
        887,
        897,
        208,
        759,
        358,
        51,
        730,
        451,
        600,
        997,
        171,
        199,
        808,
        443,
        648,
        707,
        913,
        754,
        406,
        20,
        593,
        615,
        18,
        70,
        32,
        820,
        157,
        741,
        589,
        319,
        21,
        840,
        500,
        676,
        985,
        156,
        205,
        680,
        257,
        937,
        712,
        574,
        472,
        379,
        645,
        422,
        835,
        855,
        128,
        492,
        856,
        416,
        275,
        978,
        617,
        94,
        294,
        733,
        923,
        677,
        312,
        165,
        411,
        429,
        62,
        31,
        262,
        878,
        495,
        569,
        103,
        117,
        259,
        453,
        224,
        292,
        284,
        529,
        5,
        57,
        575,
        461,
        611,
        402,
        562,
        72,
        293,
        518,
        483,
        786,
        473,
        341,
        882,
        361,
        307,
        768,
        984,
        299,
        757,
        486,
        519,
        154,
        774,
        432,
        910,
        639,
        278,
        846,
        950,
        160,
        724,
        186,
        381,
        480,
        525,
        830,
        89,
        811,
        779,
        126,
        479,
        187,
        650,
        649,
        372,
        544,
        687,
        576,
        746,
        501,
        450,
        375,
        245,
        603,
        988,
        824,
        288,
        797,
        149,
        310,
        553,
        79,
        412,
        276,
        3,
        67,
        14,
        131,
        48,
        330,
        233,
        182,
        537,
        944,
        927,
        725,
        510,
        608,
        258,
        678,
        879,
        145,
        25,
        989,
        260,
        734,
        849,
        788,
        658,
        614,
        96,
        505,
        444,
        559,
        921,
        134,
        185,
        604,
        954,
        971,
        642,
        595,
        320,
        256,
        476,
        190,
        630,
        870,
        217,
        37,
        85,
        839,
        967,
        834,
        357,
        952,
        279,
        914,
        844,
        951,
        992,
        845,
        596,
        469,
        232,
        607,
        24,
        693,
        191,
        731,
        577,
        194,
        632,
        643,
        861,
        814,
        246,
        482,
        837,
        321,
        901,
        423,
        973,
        491,
        857,
        454,
        418,
        347,
        633,
        762,
        92,
        578,
        488,
        424,
        965,
        249,
        270,
        622,
        536,
        239,
        880,
        338,
        107,
        9,
        906,
        935,
        431,
        933,
        267,
        581,
        464,
        818,
        702,
        738,
        355,
        137,
        896,
        945,
        311,
        400,
        105,
        478,
        219,
        769,
        626,
        841,
        628,
        251,
        34,
        392,
        346,
        56,
        202,
        994,
        448,
        871,
        446,
        298,
        207,
        407,
        198,
        280,
        53,
        118,
        667,
        497,
        555,
        618,
        911,
        796,
        55,
        46,
        192,
        964,
        101,
        344,
        522,
        174,
        799,
        847,
        210,
        215,
        265,
        675,
        382,
        874,
        327,
        805,
        494,
        605,
        729,
        691,
        592,
        12,
        552,
        549,
        833,
        791,
        41,
        387,
        669,
        93,
        962,
        363,
        124,
        528,
        920,
        222,
        112,
        640,
        803,
        540,
        560,
        763,
        459,
        180,
        948,
        286,
        772,
        342,
        97,
        104,
        798,
        108,
        218,
        150,
        28,
        888,
        360,
        534,
        331,
        886,
        530,
        302,
        343,
        736,
        925,
        100,
        49,
        475,
        652,
        466,
        378,
        852,
        52,
        420,
        700,
        295,
        749,
        859,
        266,
        539,
        45,
        970,
        802,
        654,
        821,
        281,
        22,
        172,
        366,
        484,
        727,
        166,
        582,
        782,
        996,
        825,
        917,
        794,
        168,
        209,
        674,
        956,
        766,
        38,
        664,
        990,
        415,
        506,
        229,
        167,
        612,
        477,
        151,
        815,
        390,
        274,
        739,
        542,
        817,
        90,
        23,
        114,
        568,
        623,
        551,
        685,
        557,
        141,
        842,
        220,
        869,
        485,
        189,
        520,
        850,
        147,
        106,
        368,
        181,
        781,
        69,
        255,
        666,
        121,
        442,
        638,
        65,
        860,
        915,
        435,
        393,
        957,
        853,
        570,
        234,
        77,
        631,
        728,
        313,
        404,
        758,
        647,
        706,
        385,
        864,
        813,
        364,
        110,
        61,
        968,
        703,
        580,
        335,
        433,
        931,
        436,
        684,
        547,
        35,
        979,
        99,
        196,
        695,
        470,
        158,
        981,
        898,
        336,
        565,
        940,
        651,
        583,
        115,
        297,
        291,
        348,
        455,
        337,
        332,
        959,
        356,
        720,
        670,
        692,
        235,
        54,
        938,
        471,
        930,
        169,
        838,
        907,
        848,
        29,
        902,
        458,
        509,
        237,
        804,
        175,
        414,
        111,
        496,
        709,
        283,
        776,
        909,
        83,
        986,
        389,
        240,
        705,
        987,
        226,
        428,
        201,
        662,
        340,
        929,
        71,
        699,
        602,
        91,
        866,
        508,
        73,
        932,
        521,
        383,
        760,
        287,
        819,
        665,
        289,
        405,
        242,
        116,
        445,
        351,
        132,
        936,
        163,
        904,
        722,
        221,
        2,
        598,
        155,
        747,
        719,
        716,
        254,
        153,
        924,
        946,
        714,
        682,
        129,
        718,
        316,
        891,
        504,
        109,
        826,
        489,
        610,
        268,
        177,
        47,
        961,
        250
    ],
    "Nb of functions evaluations": 50010,
    "Computational time in seconds": 1539.6772491931915,
    "Stopping criterion in evaluations": 50000
}